50
12758

406 68
122 253
909 405
705 895
761 349
754 462
429 979
68 19
966 885
316 483
414 788
833 324
893 328
513 601
1 488
50 846
907 838
415 748
289 151
71 72
802 524
699 532
663 798
788 979
811 211
273 730
652 787
4 339
98 692
162 572
263 825
915 945
936 974
758 419
406 222
987 452
687 211
917 708
47 423
889 231
126 396
839 642
907 578
963 442
191 573
233 745
809 272
815 803
651 616
956 637
